# Solution for model micodag
# Objective value = 1.6664813740663604e+01
s_0_1 0
s_1_0 0
s_0_2 0
s_2_0 2.3647750455527650e-01
s_0_3 0
s_3_0 2.7654905681476194e-01
s_1_8 0
s_8_1 1.2802895112964991e+00
s_3_4 0
s_4_3 4.8920835447514781e+00
s_3_5 0
s_5_3 0
s_3_6 0
s_6_3 0
s_3_7 0
s_7_3 4.8920835447514781e+00
s_3_9 0
s_9_3 0
s_3_10 0
s_10_3 4.8920835447514781e+00
s_3_13 0
s_13_3 4.8920835447514781e+00
s_4_5 0
s_5_4 2.1468333034963560e-01
s_4_6 0
s_6_4 6.7390249702490124e-01
s_4_7 1.0770042176751859e+00
s_7_4 0
s_5_10 0
s_10_5 2.5351679002741090e-01
s_6_7 0
s_7_6 0
s_6_9 0
s_9_6 0
s_6_10 0
s_10_6 0
s_6_13 0
s_13_6 0.645890209458817
s_7_9 0
s_9_7 0
s_7_10 0
s_10_7 0
s_7_13 0
s_13_7 5.8511770316813472e-01
s_8_9 0
s_9_8 5.3564407766051758e-01
s_9_10 0
s_10_9 0
s_9_13 0
s_13_9 3.2634383478695828e-01
s_10_11 0
s_11_10 2.1393418870998460e-01
s_10_12 0
s_12_10 6.4963933201749136e-01
s_10_13 0
s_13_10 5.6470304763437262e-01
s_0_0 6.2653186751136314e-01
s_1_1 9.9351060215598785e-01
s_2_2 0.623553655577016
s_3_3 4.8920835447514781e+00
s_4_4 2.3488557764234295e+00
s_5_5 5.9599719990948241e-01
s_6_6 9.4273755176537044e-01
s_7_7 8.6591138851165361e-01
s_8_8 2.1425678093203433e+00
s_9_9 8.9150466505171622e-01
s_10_10 0.650956126393254
s_11_11 6.1346584992358366e-01
s_12_12 1.0214146187867761e+00
s_13_13 9.0758721591503821e-01
Gamma_0_0 7.9153766019777239e-01
Gamma_0_1 0
Gamma_0_2 0
Gamma_0_3 0
Gamma_0_4 0
Gamma_0_5 0
Gamma_0_6 0
Gamma_0_7 0
Gamma_0_8 0
Gamma_0_9 0
Gamma_0_10 0
Gamma_0_11 0
Gamma_0_12 0
Gamma_0_13 0
Gamma_1_0 0
Gamma_1_1 9.9675001989264522e-01
Gamma_1_2 0
Gamma_1_3 0
Gamma_1_4 0
Gamma_1_5 0
Gamma_1_6 0
Gamma_1_7 0
Gamma_1_8 0
Gamma_1_9 0
Gamma_1_10 0
Gamma_1_11 0
Gamma_1_12 0
Gamma_1_13 0
Gamma_2_0 -4.8628952749907894e-01
Gamma_2_1 0
Gamma_2_2 7.8965413668074713e-01
Gamma_2_3 0
Gamma_2_4 0
Gamma_2_5 0
Gamma_2_6 0
Gamma_2_7 0
Gamma_2_8 0
Gamma_2_9 0
Gamma_2_10 0
Gamma_2_11 0
Gamma_2_12 0
Gamma_2_13 0
Gamma_3_0 5.2587931772866170e-01
Gamma_3_1 0
Gamma_3_2 0
Gamma_3_3 0.832321996331363
Gamma_3_4 0
Gamma_3_5 0
Gamma_3_6 0
Gamma_3_7 0
Gamma_3_8 0
Gamma_3_9 0
Gamma_3_10 0
Gamma_3_11 0
Gamma_3_12 0
Gamma_3_13 0
Gamma_4_0 0
Gamma_4_1 0
Gamma_4_2 0
Gamma_4_3 -4.1452324625159420e-01
Gamma_4_4 1.5325977216554347e+00
Gamma_4_5 0
Gamma_4_6 0
Gamma_4_7 -1.0377881371817592e+00
Gamma_4_8 0
Gamma_4_9 0
Gamma_4_10 0
Gamma_4_11 0
Gamma_4_12 0
Gamma_4_13 0
Gamma_5_0 0
Gamma_5_1 0
Gamma_5_2 0
Gamma_5_3 0
Gamma_5_4 -4.6333932527860860e-01
Gamma_5_5 7.7200854911683658e-01
Gamma_5_6 0
Gamma_5_7 0
Gamma_5_8 0
Gamma_5_9 0
Gamma_5_10 0
Gamma_5_11 0
Gamma_5_12 0
Gamma_5_13 0
Gamma_6_0 0
Gamma_6_1 0
Gamma_6_2 0
Gamma_6_3 0
Gamma_6_4 8.2091564549891616e-01
Gamma_6_5 0
Gamma_6_6 9.7094672962288286e-01
Gamma_6_7 0
Gamma_6_8 0
Gamma_6_9 0
Gamma_6_10 0
Gamma_6_11 0
Gamma_6_12 0
Gamma_6_13 0
Gamma_7_0 0
Gamma_7_1 0
Gamma_7_2 0
Gamma_7_3 -0.459174626041093
Gamma_7_4 0
Gamma_7_5 0
Gamma_7_6 0
Gamma_7_7 9.3054359839378520e-01
Gamma_7_8 0
Gamma_7_9 0
Gamma_7_10 0
Gamma_7_11 0
Gamma_7_12 0
Gamma_7_13 0
Gamma_8_0 0
Gamma_8_1 1.1314987897901172e+00
Gamma_8_2 0
Gamma_8_3 0
Gamma_8_4 0
Gamma_8_5 0
Gamma_8_6 0
Gamma_8_7 0
Gamma_8_8 1.4637512798697541e+00
Gamma_8_9 0
Gamma_8_10 0
Gamma_8_11 0
Gamma_8_12 0
Gamma_8_13 0
Gamma_9_0 0
Gamma_9_1 0
Gamma_9_2 0
Gamma_9_3 0
Gamma_9_4 0
Gamma_9_5 0
Gamma_9_6 0
Gamma_9_7 0
Gamma_9_8 7.3187709190855144e-01
Gamma_9_9 0.944195247314726
Gamma_9_10 0
Gamma_9_11 0
Gamma_9_12 0
Gamma_9_13 0
Gamma_10_0 0
Gamma_10_1 0
Gamma_10_2 0
Gamma_10_3 -0.609644410041184
Gamma_10_4 0
Gamma_10_5 -5.0350450844795025e-01
Gamma_10_6 0
Gamma_10_7 0
Gamma_10_8 0
Gamma_10_9 0
Gamma_10_10 8.0681852134990983e-01
Gamma_10_11 0
Gamma_10_12 0
Gamma_10_13 0
Gamma_11_0 0
Gamma_11_1 0
Gamma_11_2 0
Gamma_11_3 0
Gamma_11_4 0
Gamma_11_5 0
Gamma_11_6 0
Gamma_11_7 0
Gamma_11_8 0
Gamma_11_9 0
Gamma_11_10 -4.6253020302460840e-01
Gamma_11_11 7.8324060793831718e-01
Gamma_11_12 0
Gamma_11_13 0
Gamma_12_0 0
Gamma_12_1 0
Gamma_12_2 0
Gamma_12_3 0
Gamma_12_4 0
Gamma_12_5 0
Gamma_12_6 0
Gamma_12_7 0
Gamma_12_8 0
Gamma_12_9 0
Gamma_12_10 -8.0600206700571964e-01
Gamma_12_11 0
Gamma_12_12 1.0106505918401156e+00
Gamma_12_13 0
Gamma_13_0 0
Gamma_13_1 0
Gamma_13_2 0
Gamma_13_3 7.3522889949090675e-01
Gamma_13_4 0
Gamma_13_5 0
Gamma_13_6 -8.0367294931384747e-01
Gamma_13_7 7.6492986813703090e-01
Gamma_13_8 0
Gamma_13_9 -5.7126511777541544e-01
Gamma_13_10 -7.5146726318208557e-01
Gamma_13_11 0
Gamma_13_12 0
Gamma_13_13 9.5267371954674973e-01
psi_0 6
psi_1 3
psi_2 0
psi_3 5
psi_4 3
psi_5 2
psi_6 1
psi_7 4
psi_8 2
psi_9 1
psi_10 1
psi_11 0
psi_12 0
psi_13 0
g_0_0 0
g_0_1 0
g_0_2 0
g_0_3 0
g_0_4 0
g_0_5 0
g_0_6 0
g_0_7 0
g_0_8 0
g_0_9 0
g_0_10 0
g_0_11 0
g_0_12 0
g_0_13 0
g_1_0 0
g_1_1 0
g_1_2 0
g_1_3 0
g_1_4 0
g_1_5 0
g_1_6 0
g_1_7 0
g_1_8 0
g_1_9 0
g_1_10 0
g_1_11 0
g_1_12 0
g_1_13 0
g_2_0 1
g_2_1 0
g_2_2 0
g_2_3 0
g_2_4 0
g_2_5 0
g_2_6 0
g_2_7 0
g_2_8 0
g_2_9 0
g_2_10 0
g_2_11 0
g_2_12 0
g_2_13 0
g_3_0 1
g_3_1 0
g_3_2 0
g_3_3 0
g_3_4 0
g_3_5 0
g_3_6 0
g_3_7 0
g_3_8 0
g_3_9 0
g_3_10 0
g_3_11 0
g_3_12 0
g_3_13 0
g_4_0 0
g_4_1 0
g_4_2 0
g_4_3 1
g_4_4 0
g_4_5 0
g_4_6 0
g_4_7 1
g_4_8 0
g_4_9 0
g_4_10 0
g_4_11 0
g_4_12 0
g_4_13 0
g_5_0 0
g_5_1 0
g_5_2 0
g_5_3 0
g_5_4 1
g_5_5 0
g_5_6 0
g_5_7 0
g_5_8 0
g_5_9 0
g_5_10 0
g_5_11 0
g_5_12 0
g_5_13 0
g_6_0 0
g_6_1 0
g_6_2 0
g_6_3 0
g_6_4 1
g_6_5 0
g_6_6 0
g_6_7 0
g_6_8 0
g_6_9 0
g_6_10 0
g_6_11 0
g_6_12 0
g_6_13 0
g_7_0 0
g_7_1 0
g_7_2 0
g_7_3 1
g_7_4 0
g_7_5 0
g_7_6 0
g_7_7 0
g_7_8 0
g_7_9 0
g_7_10 0
g_7_11 0
g_7_12 0
g_7_13 0
g_8_0 0
g_8_1 1
g_8_2 0
g_8_3 0
g_8_4 0
g_8_5 0
g_8_6 0
g_8_7 0
g_8_8 0
g_8_9 0
g_8_10 0
g_8_11 0
g_8_12 0
g_8_13 0
g_9_0 0
g_9_1 0
g_9_2 0
g_9_3 0
g_9_4 0
g_9_5 0
g_9_6 0
g_9_7 0
g_9_8 1
g_9_9 0
g_9_10 0
g_9_11 0
g_9_12 0
g_9_13 0
g_10_0 0
g_10_1 0
g_10_2 0
g_10_3 1
g_10_4 0
g_10_5 1
g_10_6 0
g_10_7 0
g_10_8 0
g_10_9 0
g_10_10 0
g_10_11 0
g_10_12 0
g_10_13 0
g_11_0 0
g_11_1 0
g_11_2 0
g_11_3 0
g_11_4 0
g_11_5 0
g_11_6 0
g_11_7 0
g_11_8 0
g_11_9 0
g_11_10 1
g_11_11 0
g_11_12 0
g_11_13 0
g_12_0 0
g_12_1 0
g_12_2 0
g_12_3 0
g_12_4 0
g_12_5 0
g_12_6 0
g_12_7 0
g_12_8 0
g_12_9 0
g_12_10 1
g_12_11 0
g_12_12 0
g_12_13 0
g_13_0 0
g_13_1 0
g_13_2 0
g_13_3 1
g_13_4 0
g_13_5 0
g_13_6 1
g_13_7 1
g_13_8 0
g_13_9 1
g_13_10 1
g_13_11 0
g_13_12 0
g_13_13 0
T_0 4.6755563999971628e-01
T_1 6.5105455263250178e-03
T_2 4.7232046210828571e-01
T_3 3.6707179642100130e-01
T_4 -8.5392830593039548e-01
T_5 5.1751931006627672e-01
T_6 5.8967347104413648e-02
T_7 1.4397269838984528e-01
T_8 -7.6200502061338682e-01
T_9 1.1484460888082992e-01
T_10 4.2931303321783787e-01
T_11 4.8863068072672888e-01
T_12 -2.1188547628270271e-02
T_13 9.6965611769491034e-02
